data/mip_solutions/furman_sahinidis/transshipment/7sp-s1_gurobi.sol
Elapsed time: 0.078202009201
Nodes explored: 0
Upper bound: 10.0
Lower bound: 10.0
y[0,0]=1
y[1,0]=1
y[1,1]=1
y[2,0]=1
y[2,1]=1
y[3,0]=1
y[3,1]=1
y[4,0]=1
y[5,0]=1
y[6,0]=1
q[0,0,6]=5831.6
q[1,0,5]=5106.5
q[1,0,6]=4807.9
q[1,1,7]=648.0
q[2,0,6]=7386.8
q[2,1,7]=626.0
q[3,0,2]=2409.3
q[3,0,3]=1276.7
q[3,0,5]=8599.6
q[3,0,6]=4881.0
q[3,1,7]=561.0
q[4,0,4]=7214.0
q[4,0,5]=11480.8
q[4,0,6]=5885.4
q[5,0,1]=12760.4
q[5,0,2]=4897.3
q[5,0,3]=21698.3
q[5,0,4]=6266.8
q[5,0,5]=7474.1
q[5,0,6]=6160.3
q[6,0,1]=18181.6
q[6,0,2]=40252.4
q[6,0,3]=17135.0
q[6,0,4]=6574.2
r[1,5]=2268.0
r[1,6]=855.1
r[2,6]=3568.2
r[3,3]=2247.0
r[3,4]=4897.3
r[3,5]=6860.8
r[3,6]=1458.9
r[4,4]=8078.0
r[4,5]=4903.0
r[5,3]=9611.1
r[5,4]=148.8
r[5,6]=2489.5
r[6,1]=82143.2
r[6,2]=63961.6
r[6,3]=23709.2
r[6,4]=6574.2
